proyfinal/src/viki/013/experimentInOfficeAgust.take6.output/39294524-9ffd-4c14-b155-251ad40ecc4d.als.out
Reading from standard input... Use '--help' for help.
============================[ Problem Statistics ]=============================
|                                                                             |
|  Number of variables:         87638                                         |
|  Number of clauses:          161767                                         |
|  Parse time:                   0.03 s                                       |
|                                                                             |
============================[ Search Statistics ]==============================
| Conflicts |          ORIGINAL         |          LEARNT          | Progress |
|           |    Vars  Clauses Literals |    Limit  Clauses Lit/Cl |          |
===============================================================================
|       100 |   63229   108250   270503 |    39691      100      9 | 27.852 % |
|       250 |   63229   108250   270503 |    43660      250     29 | 27.852 % |
|       475 |   52928    78573   197343 |    48026      466     35 | 39.606 % |
|       812 |   52896    77975   195938 |    52829      758     46 | 39.643 % |
|      1318 |   52896    77975   195938 |    58112     1264     55 | 39.643 % |
|      2077 |   52434    76211   191580 |    63923     2006     67 | 40.170 % |
|      3216 |   52001    74615   187519 |    70316     2929     64 | 40.664 % |
|      4924 |   51832    73837   185662 |    77347     4621     59 | 40.857 % |
|      7486 |   51710    73582   185066 |    85082     7128     65 | 40.996 % |
|     11330 |   51519    72513   182518 |    93590    10936     60 | 41.214 % |
===============================================================================
restarts              : 63
conflicts             : 16746          (8215 /sec)
decisions             : 65526          (0.00 % random) (32147 /sec)
propagations          : 21751134       (10670946 /sec)
conflict literals     : 982803         (41.43 % deleted)
Memory used           : 30.80 MB
CPU time              : 2.03835 s

INDETERMINATE
